branch-and-cut/resultados/I080/i080-012.sol
1484
9
60 5
38 29
38 3
29 6
25 60
4 60
38 25
38 2
1 38
